NAME          
ROWS
 N  OBJ
 L  c1
 L  c2
COLUMNS
    MARKER    'MARKER'                 'INTORG'
    x[1]      c1        467
    x[1]      c2        228
    x[1]      OBJ       -949
    x[2]      c1        329
    x[2]      c2        327
    x[2]      OBJ       -342
    x[3]      c1        347
    x[3]      c2        768
    x[3]      OBJ       -382
    x[4]      c1        943
    x[4]      c2        463
    x[4]      OBJ       -206
    x[5]      c1        738
    x[5]      c2        2
    x[5]      OBJ       -789
    x[6]      c1        548
    x[6]      c2        520
    x[6]      OBJ       -311
    x[7]      c1        460
    x[7]      c2        545
    x[7]      OBJ       -837
    x[8]      c1        818
    x[8]      c2        964
    x[8]      OBJ       -934
    x[9]      c1        321
    x[9]      c2        810
    x[9]      OBJ       -512
    x[10]     c1        439
    x[10]     c2        960
    x[10]     OBJ       -506
    x[11]     c1        237
    x[11]     c2        897
    x[11]     OBJ       -507
    x[12]     c1        93
    x[12]     c2        45
    x[12]     OBJ       -656
    x[13]     c1        928
    x[13]     c2        621
    x[13]     OBJ       -432
    x[14]     c1        712
    x[14]     c2        216
    x[14]     OBJ       -103
    x[15]     c1        151
    x[15]     c2        118
    x[15]     OBJ       -431
    x[16]     c1        760
    x[16]     c2        99
    x[16]     OBJ       -571
    x[17]     c1        715
    x[17]     c2        690
    x[17]     OBJ       -361
    x[18]     c1        613
    x[18]     c2        536
    x[18]     OBJ       -38
    x[19]     c1        810
    x[19]     c2        292
    x[19]     OBJ       -411
    x[20]     c1        880
    x[20]     c2        47
    x[20]     OBJ       -215
    x[21]     c1        494
    x[21]     c2        726
    x[21]     OBJ       -932
    x[22]     c1        612
    x[22]     c2        839
    x[22]     OBJ       -23
    x[23]     c1        751
    x[23]     c2        416
    x[23]     OBJ       -613
    x[24]     c1        522
    x[24]     c2        962
    x[24]     OBJ       -195
    x[25]     c1        940
    x[25]     c2        167
    x[25]     OBJ       -882
    x[26]     c1        199
    x[26]     c2        447
    x[26]     OBJ       -994
    x[27]     c1        192
    x[27]     c2        637
    x[27]     OBJ       -426
    x[28]     c1        939
    x[28]     c2        97
    x[28]     OBJ       -533
    x[29]     c1        328
    x[29]     c2        698
    x[29]     OBJ       -52
    x[30]     c1        408
    x[30]     c2        81
    x[30]     OBJ       -598
RHS
    rhs       c1        8347
    rhs       c2        7109
RANGES
BOUNDS
 BV bounds    x[1]
 BV bounds    x[2]
 BV bounds    x[3]
 BV bounds    x[4]
 BV bounds    x[5]
 BV bounds    x[6]
 BV bounds    x[7]
 BV bounds    x[8]
 BV bounds    x[9]
 BV bounds    x[10]
 BV bounds    x[11]
 BV bounds    x[12]
 BV bounds    x[13]
 BV bounds    x[14]
 BV bounds    x[15]
 BV bounds    x[16]
 BV bounds    x[17]
 BV bounds    x[18]
 BV bounds    x[19]
 BV bounds    x[20]
 BV bounds    x[21]
 BV bounds    x[22]
 BV bounds    x[23]
 BV bounds    x[24]
 BV bounds    x[25]
 BV bounds    x[26]
 BV bounds    x[27]
 BV bounds    x[28]
 BV bounds    x[29]
 BV bounds    x[30]
ENDATA
